(set-info :source |printed by MathSAT|)
(declare-fun |!{$(in_main#0)<$(in_elem_exists#5)<set>>}| () Int)
(declare-fun |!{$(in_main#0)<$(in_elem_exists#5)<set>>}.next| () Int)
(declare-fun |!{$(in_main#0)<$(in_elem_exists#5)<size>>}| () Int)
(declare-fun |!{$(in_main#0)<$(in_elem_exists#5)<size>>}.next| () Int)
(declare-fun |!{$(in_main#0)<$(in_elem_exists#5)<value>>}| () Int)
(declare-fun |!{$(in_main#0)<$(in_elem_exists#5)<value>>}.next| () Int)
(declare-fun |!{$(in_main#0)<SIZE>}| () Int)
(declare-fun |!{$(in_main#0)<SIZE>}.next| () Int)
(declare-fun |!{$(in_main#0)<$(in_elem_exists#5)<i>>}| () Int)
(declare-fun |!{$(in_main#0)<$(in_elem_exists#5)<i>>}.next| () Int)
(declare-fun |!{$(in_main#0)<n>}| () Int)
(declare-fun |!{$(in_main#0)<n>}.next| () Int)
(declare-fun |!{$(in_main#0)<&set>}| () Int)
(declare-fun |!{$(in_main#0)<&set>}.next| () Int)
(declare-fun |!{$(in_main#0)<v>}| () Int)
(declare-fun |!{$(in_main#0)<v>}.next| () Int)
(declare-fun |!{$(in_main#0)<x>}| () Int)
(declare-fun |!{$(in_main#0)<x>}.next| () Int)
(declare-fun |!{$(in_main#0)<y>}| () Int)
(declare-fun |!{$(in_main#0)<y>}.next| () Int)
(declare-fun |!{%memaddr}| () Int)
(declare-fun |!{%memaddr}.next| () Int)
(declare-fun |!{%mem.0}| () (Array Int Int))
(declare-fun |!{%mem.0}.next| () (Array Int Int))
(declare-fun |!{$(in_main#0)<values.1>}| () (Array Int Int))
(declare-fun |!{$(in_main#0)<values.1>}.next| () (Array Int Int))
(declare-fun |!{$(in_main#0)<$(in___VERIFIER_nondet_int#1)<h#<__VERIFIER_nondet_int.return>>>}| () Int)
(declare-fun |!{$(in_main#0)<$(in___VERIFIER_nondet_int#2)<h#<__VERIFIER_nondet_int.return>>>}| () Int)
(declare-fun |!{$(in_main#0)<$(in___VERIFIER_nondet_int#4)<h#<__VERIFIER_nondet_int.return>>>}| () Int)
(declare-fun !pc () Int)
(declare-fun !pc.next () Int)
(declare-fun |%{$(in_main#0)<v>}#1| () Int)
(declare-fun |%{$(in_main#0)<y>}#1| () Int)
(declare-fun |%{$(in_main#0)<values.1>}#1| () (Array Int Int))
(declare-fun |%{$(in_main#0)<$(in_elem_exists#5)<elem_exists.return>>}#2| () Int)
(declare-fun |%{$(in_main#0)<$temp.1>}#3| () Int)
(declare-fun |%{$(in_main#0)<n>}#2| () Int)
(declare-fun |%{%mem.0}#2| () (Array Int Int))
(define-fun .def_71 () Int (! !pc :next !pc.next))
(define-fun .def_74 () Bool (! (= .def_71 2) :init true))
(define-fun .def_409 () Bool (= .def_71 48))
(define-fun .def_394 () Bool (= !pc.next 69))
(define-fun .def_412 () Bool (and .def_394 .def_409))
(define-fun .def_24 () Int (! |!{$(in_main#0)<x>}| :next |!{$(in_main#0)<x>}.next|))
(define-fun .def_14 () Int (! |!{$(in_main#0)<SIZE>}| :next |!{$(in_main#0)<SIZE>}.next|))
(define-fun .def_401 () Bool (<= .def_14 .def_24))
(define-fun .def_22 () Int (! |!{$(in_main#0)<v>}| :next |!{$(in_main#0)<v>}.next|))
(define-fun .def_128 () Bool (= .def_22 |!{$(in_main#0)<v>}.next|))
(define-fun .def_20 () Int (! |!{$(in_main#0)<&set>}| :next |!{$(in_main#0)<&set>}.next|))
(define-fun .def_126 () Bool (= .def_20 |!{$(in_main#0)<&set>}.next|))
(define-fun .def_18 () Int (! |!{$(in_main#0)<n>}| :next |!{$(in_main#0)<n>}.next|))
(define-fun .def_123 () Bool (= .def_18 |!{$(in_main#0)<n>}.next|))
(define-fun .def_120 () Bool (= .def_14 |!{$(in_main#0)<SIZE>}.next|))
(define-fun .def_10 () Int (! |!{$(in_main#0)<$(in_elem_exists#5)<size>>}| :next |!{$(in_main#0)<$(in_elem_exists#5)<size>>}.next|))
(define-fun .def_89 () Bool (= .def_10 |!{$(in_main#0)<$(in_elem_exists#5)<size>>}.next|))
(define-fun .def_8 () Int (! |!{$(in_main#0)<$(in_elem_exists#5)<set>>}| :next |!{$(in_main#0)<$(in_elem_exists#5)<set>>}.next|))
(define-fun .def_88 () Bool (= .def_8 |!{$(in_main#0)<$(in_elem_exists#5)<set>>}.next|))
(define-fun .def_90 () Bool (and .def_88 .def_89))
(define-fun .def_121 () Bool (and .def_90 .def_120))
(define-fun .def_12 () Int (! |!{$(in_main#0)<$(in_elem_exists#5)<value>>}| :next |!{$(in_main#0)<$(in_elem_exists#5)<value>>}.next|))
(define-fun .def_93 () Bool (= .def_12 |!{$(in_main#0)<$(in_elem_exists#5)<value>>}.next|))
(define-fun .def_122 () Bool (and .def_93 .def_121))
(define-fun .def_124 () Bool (and .def_122 .def_123))
(define-fun .def_16 () Int (! |!{$(in_main#0)<$(in_elem_exists#5)<i>>}| :next |!{$(in_main#0)<$(in_elem_exists#5)<i>>}.next|))
(define-fun .def_97 () Bool (= .def_16 |!{$(in_main#0)<$(in_elem_exists#5)<i>>}.next|))
(define-fun .def_125 () Bool (and .def_97 .def_124))
(define-fun .def_127 () Bool (and .def_125 .def_126))
(define-fun .def_129 () Bool (and .def_127 .def_128))
(define-fun .def_103 () Bool (= |!{$(in_main#0)<x>}.next| 0))
(define-fun .def_249 () Bool (and .def_103 .def_129))
(define-fun .def_26 () Int (! |!{$(in_main#0)<y>}| :next |!{$(in_main#0)<y>}.next|))
(define-fun .def_152 () Bool (= .def_26 |!{$(in_main#0)<y>}.next|))
(define-fun .def_250 () Bool (and .def_152 .def_249))
(define-fun .def_28 () Int (! |!{%memaddr}| :next |!{%memaddr}.next|))
(define-fun .def_137 () Bool (= .def_28 |!{%memaddr}.next|))
(define-fun .def_251 () Bool (and .def_137 .def_250))
(define-fun .def_30 () (Array Int Int) (! |!{%mem.0}| :next |!{%mem.0}.next|))
(define-fun .def_109 () Bool (= .def_30 |!{%mem.0}.next|))
(define-fun .def_252 () Bool (and .def_109 .def_251))
(define-fun .def_32 () (Array Int Int) (! |!{$(in_main#0)<values.1>}| :next |!{$(in_main#0)<values.1>}.next|))
(define-fun .def_140 () Bool (= .def_32 |!{$(in_main#0)<values.1>}.next|))
(define-fun .def_253 () Bool (and .def_140 .def_252))
(define-fun .def_408 () Bool (and .def_253 .def_401))
(define-fun .def_413 () Bool (and .def_408 .def_412))
(define-fun .def_114 () Bool (= !pc.next 48))
(define-fun .def_410 () Bool (and .def_114 .def_409))
(define-fun .def_170 () Int (+ .def_20 .def_24))
(define-fun .def_403 () (Array Int Int) (store .def_30 .def_170 |!{$(in_main#0)<$(in___VERIFIER_nondet_int#2)<h#<__VERIFIER_nondet_int.return>>>}|))
(define-fun .def_404 () Bool (= |!{%mem.0}.next| .def_403))
(define-fun .def_204 () Int (* (- 1) |!{$(in_main#0)<x>}.next|))
(define-fun .def_205 () Int (+ .def_24 .def_204))
(define-fun .def_206 () Bool (= .def_205 (- 1)))
(define-fun .def_207 () Bool (and .def_129 .def_206))
(define-fun .def_208 () Bool (and .def_152 .def_207))
(define-fun .def_209 () Bool (and .def_137 .def_208))
(define-fun .def_405 () Bool (and .def_209 .def_404))
(define-fun .def_406 () Bool (and .def_140 .def_405))
(define-fun .def_402 () Bool (not .def_401))
(define-fun .def_407 () Bool (and .def_402 .def_406))
(define-fun .def_411 () Bool (and .def_407 .def_410))
(define-fun .def_414 () Bool (or .def_411 .def_413))
(define-fun .def_386 () Bool (= .def_71 78))
(define-fun .def_395 () Bool (and .def_386 .def_394))
(define-fun .def_210 () Bool (and .def_109 .def_209))
(define-fun .def_211 () Bool (and .def_140 .def_210))
(define-fun .def_168 () Bool (<= .def_18 .def_26))
(define-fun .def_212 () Bool (and .def_168 .def_211))
(define-fun .def_396 () Bool (and .def_212 .def_395))
(define-fun .def_379 () Bool (= !pc.next 78))
(define-fun .def_391 () Bool (and .def_379 .def_386))
(define-fun .def_133 () Int (* (- 1) |!{$(in_main#0)<y>}.next|))
(define-fun .def_196 () Int (+ .def_26 .def_133))
(define-fun .def_197 () Bool (= .def_196 (- 1)))
(define-fun .def_130 () Bool (= .def_24 |!{$(in_main#0)<x>}.next|))
(define-fun .def_131 () Bool (and .def_129 .def_130))
(define-fun .def_198 () Bool (and .def_131 .def_197))
(define-fun .def_199 () Bool (and .def_137 .def_198))
(define-fun .def_200 () Bool (and .def_109 .def_199))
(define-fun .def_201 () Bool (and .def_140 .def_200))
(define-fun .def_172 () Int (+ .def_20 .def_26))
(define-fun .def_173 () Int (select .def_30 .def_172))
(define-fun .def_171 () Int (select .def_30 .def_170))
(define-fun .def_174 () Bool (= .def_171 .def_173))
(define-fun .def_175 () Bool (not .def_174))
(define-fun .def_176 () Int (ite .def_175 1 0))
(define-fun .def_177 () Bool (= .def_176 0))
(define-fun .def_178 () Bool (not .def_177))
(define-fun .def_202 () Bool (and .def_178 .def_201))
(define-fun .def_169 () Bool (not .def_168))
(define-fun .def_203 () Bool (and .def_169 .def_202))
(define-fun .def_392 () Bool (and .def_203 .def_391))
(define-fun .def_388 () Bool (= !pc.next 98))
(define-fun .def_389 () Bool (and .def_386 .def_388))
(define-fun .def_182 () Bool (and .def_88 .def_177))
(define-fun .def_183 () Bool (and .def_89 .def_182))
(define-fun .def_184 () Bool (and .def_120 .def_183))
(define-fun .def_185 () Bool (and .def_93 .def_184))
(define-fun .def_186 () Bool (and .def_123 .def_185))
(define-fun .def_187 () Bool (and .def_97 .def_186))
(define-fun .def_188 () Bool (and .def_126 .def_187))
(define-fun .def_189 () Bool (and .def_128 .def_188))
(define-fun .def_190 () Bool (and .def_130 .def_189))
(define-fun .def_191 () Bool (and .def_152 .def_190))
(define-fun .def_192 () Bool (and .def_137 .def_191))
(define-fun .def_193 () Bool (and .def_109 .def_192))
(define-fun .def_194 () Bool (and .def_140 .def_193))
(define-fun .def_195 () Bool (and .def_169 .def_194))
(define-fun .def_390 () Bool (and .def_195 .def_389))
(define-fun .def_393 () Bool (or .def_390 .def_392))
(define-fun .def_397 () Bool (or .def_393 .def_396))
(define-fun .def_377 () Bool (= .def_71 69))
(define-fun .def_368 () Bool (= !pc.next 114))
(define-fun .def_382 () Bool (and .def_368 .def_377))
(define-fun .def_358 () Bool (= |!{$(in_main#0)<v>}.next| 0))
(define-fun .def_359 () Bool (and .def_127 .def_358))
(define-fun .def_360 () Bool (and .def_130 .def_359))
(define-fun .def_361 () Bool (and .def_152 .def_360))
(define-fun .def_362 () Bool (and .def_137 .def_361))
(define-fun .def_363 () Bool (and .def_109 .def_362))
(define-fun .def_364 () Bool (and .def_140 .def_363))
(define-fun .def_117 () Bool (<= .def_18 .def_24))
(define-fun .def_375 () Bool (and .def_117 .def_364))
(define-fun .def_383 () Bool (and .def_375 .def_382))
(define-fun .def_380 () Bool (and .def_377 .def_379))
(define-fun .def_134 () Int (+ .def_24 .def_133))
(define-fun .def_135 () Bool (= .def_134 (- 1)))
(define-fun .def_136 () Bool (and .def_131 .def_135))
(define-fun .def_138 () Bool (and .def_136 .def_137))
(define-fun .def_139 () Bool (and .def_109 .def_138))
(define-fun .def_141 () Bool (and .def_139 .def_140))
(define-fun .def_118 () Bool (not .def_117))
(define-fun .def_142 () Bool (and .def_118 .def_141))
(define-fun .def_381 () Bool (and .def_142 .def_380))
(define-fun .def_384 () Bool (or .def_381 .def_383))
(define-fun .def_367 () Bool (= .def_71 114))
(define-fun .def_344 () Bool (= !pc.next 135))
(define-fun .def_371 () Bool (and .def_344 .def_367))
(define-fun .def_228 () Bool (<= .def_14 .def_22))
(define-fun .def_365 () Bool (and .def_228 .def_364))
(define-fun .def_372 () Bool (and .def_365 .def_371))
(define-fun .def_369 () Bool (and .def_367 .def_368))
(define-fun .def_349 () (Array Int Int) (store .def_32 .def_22 |!{$(in_main#0)<$(in___VERIFIER_nondet_int#4)<h#<__VERIFIER_nondet_int.return>>>}|))
(define-fun .def_355 () Bool (= |!{$(in_main#0)<values.1>}.next| .def_349))
(define-fun .def_329 () Int (* (- 1) |!{$(in_main#0)<v>}.next|))
(define-fun .def_330 () Int (+ .def_22 .def_329))
(define-fun .def_331 () Bool (= .def_330 (- 1)))
(define-fun .def_350 () Bool (and .def_127 .def_331))
(define-fun .def_351 () Bool (and .def_130 .def_350))
(define-fun .def_352 () Bool (and .def_152 .def_351))
(define-fun .def_353 () Bool (and .def_137 .def_352))
(define-fun .def_354 () Bool (and .def_109 .def_353))
(define-fun .def_356 () Bool (and .def_354 .def_355))
(define-fun .def_229 () Bool (not .def_228))
(define-fun .def_357 () Bool (and .def_229 .def_356))
(define-fun .def_370 () Bool (and .def_357 .def_369))
(define-fun .def_373 () Bool (or .def_370 .def_372))
(define-fun .def_341 () Bool (= .def_71 152))
(define-fun .def_345 () Bool (and .def_341 .def_344))
(define-fun .def_336 () Bool (= |!{%mem.0}.next| |%{%mem.0}#2|))
(define-fun .def_325 () Bool (= |!{$(in_main#0)<n>}.next| |%{$(in_main#0)<n>}#2|))
(define-fun .def_326 () Bool (and .def_122 .def_325))
(define-fun .def_327 () Bool (and .def_97 .def_326))
(define-fun .def_328 () Bool (and .def_126 .def_327))
(define-fun .def_332 () Bool (and .def_328 .def_331))
(define-fun .def_333 () Bool (and .def_130 .def_332))
(define-fun .def_334 () Bool (and .def_152 .def_333))
(define-fun .def_335 () Bool (and .def_137 .def_334))
(define-fun .def_337 () Bool (and .def_335 .def_336))
(define-fun .def_338 () Bool (and .def_140 .def_337))
(define-fun .def_230 () Int (select .def_32 .def_22))
(define-fun .def_281 () Int (+ .def_18 .def_20))
(define-fun .def_282 () (Array Int Int) (store .def_30 .def_281 .def_230))
(define-fun .def_306 () Bool (= .def_282 |%{%mem.0}#2|))
(define-fun .def_298 () Int (* (- 1) |%{$(in_main#0)<n>}#2|))
(define-fun .def_299 () Int (+ .def_18 .def_298))
(define-fun .def_300 () Bool (= .def_299 (- 1)))
(define-fun .def_291 () Int (* (- 1) |%{$(in_main#0)<$temp.1>}#3|))
(define-fun .def_292 () Int (+ .def_18 .def_291))
(define-fun .def_293 () Bool (= .def_292 (- 1)))
(define-fun .def_276 () Bool (= |%{$(in_main#0)<$(in_elem_exists#5)<elem_exists.return>>}#2| 0))
(define-fun .def_295 () Bool (and .def_276 .def_293))
(define-fun .def_302 () Bool (and .def_295 .def_300))
(define-fun .def_308 () Bool (and .def_302 .def_306))
(define-fun .def_305 () Bool (= .def_30 |%{%mem.0}#2|))
(define-fun .def_297 () Bool (= .def_18 |%{$(in_main#0)<n>}#2|))
(define-fun .def_290 () Bool (= |%{$(in_main#0)<$(in_elem_exists#5)<elem_exists.return>>}#2| |%{$(in_main#0)<$temp.1>}#3|))
(define-fun .def_280 () Bool (not .def_276))
(define-fun .def_294 () Bool (and .def_280 .def_290))
(define-fun .def_301 () Bool (and .def_294 .def_297))
(define-fun .def_307 () Bool (and .def_301 .def_305))
(define-fun .def_309 () Bool (or .def_307 .def_308))
(define-fun .def_339 () Bool (and .def_309 .def_338))
(define-fun .def_265 () Bool (<= .def_10 .def_16))
(define-fun .def_278 () Bool (and .def_265 .def_276))
(define-fun .def_275 () Bool (= |%{$(in_main#0)<$(in_elem_exists#5)<elem_exists.return>>}#2| 1))
(define-fun .def_267 () Int (+ .def_8 .def_16))
(define-fun .def_268 () Int (select .def_30 .def_267))
(define-fun .def_269 () Bool (= .def_12 .def_268))
(define-fun .def_266 () Bool (not .def_265))
(define-fun .def_273 () Bool (and .def_266 .def_269))
(define-fun .def_277 () Bool (and .def_273 .def_275))
(define-fun .def_279 () Bool (or .def_277 .def_278))
(define-fun .def_340 () Bool (and .def_279 .def_339))
(define-fun .def_346 () Bool (and .def_340 .def_345))
(define-fun .def_258 () Bool (= !pc.next 152))
(define-fun .def_342 () Bool (and .def_258 .def_341))
(define-fun .def_312 () Int (* (- 1) |!{$(in_main#0)<$(in_elem_exists#5)<i>>}.next|))
(define-fun .def_313 () Int (+ .def_16 .def_312))
(define-fun .def_314 () Bool (= .def_313 (- 1)))
(define-fun .def_315 () Bool (and .def_124 .def_314))
(define-fun .def_316 () Bool (and .def_126 .def_315))
(define-fun .def_317 () Bool (and .def_128 .def_316))
(define-fun .def_318 () Bool (and .def_130 .def_317))
(define-fun .def_319 () Bool (and .def_152 .def_318))
(define-fun .def_320 () Bool (and .def_137 .def_319))
(define-fun .def_321 () Bool (and .def_109 .def_320))
(define-fun .def_322 () Bool (and .def_140 .def_321))
(define-fun .def_270 () Bool (not .def_269))
(define-fun .def_323 () Bool (and .def_270 .def_322))
(define-fun .def_324 () Bool (and .def_266 .def_323))
(define-fun .def_343 () Bool (and .def_324 .def_342))
(define-fun .def_347 () Bool (or .def_343 .def_346))
(define-fun .def_256 () Bool (= .def_71 135))
(define-fun .def_221 () Bool (= !pc.next 210))
(define-fun .def_261 () Bool (and .def_221 .def_256))
(define-fun .def_254 () Bool (and .def_228 .def_253))
(define-fun .def_262 () Bool (and .def_254 .def_261))
(define-fun .def_259 () Bool (and .def_256 .def_258))
(define-fun .def_239 () Bool (= |!{$(in_main#0)<$(in_elem_exists#5)<i>>}.next| 0))
(define-fun .def_236 () Bool (= |!{$(in_main#0)<$(in_elem_exists#5)<value>>}.next| .def_230))
(define-fun .def_233 () Bool (= |!{$(in_main#0)<$(in_elem_exists#5)<size>>}.next| .def_18))
(define-fun .def_232 () Bool (= |!{$(in_main#0)<$(in_elem_exists#5)<set>>}.next| .def_20))
(define-fun .def_234 () Bool (and .def_232 .def_233))
(define-fun .def_235 () Bool (and .def_120 .def_234))
(define-fun .def_237 () Bool (and .def_235 .def_236))
(define-fun .def_238 () Bool (and .def_123 .def_237))
(define-fun .def_240 () Bool (and .def_238 .def_239))
(define-fun .def_241 () Bool (and .def_126 .def_240))
(define-fun .def_242 () Bool (and .def_128 .def_241))
(define-fun .def_243 () Bool (and .def_130 .def_242))
(define-fun .def_244 () Bool (and .def_152 .def_243))
(define-fun .def_245 () Bool (and .def_137 .def_244))
(define-fun .def_246 () Bool (and .def_109 .def_245))
(define-fun .def_247 () Bool (and .def_140 .def_246))
(define-fun .def_248 () Bool (and .def_229 .def_247))
(define-fun .def_260 () Bool (and .def_248 .def_259))
(define-fun .def_263 () Bool (or .def_260 .def_262))
(define-fun .def_213 () Bool (= .def_71 219))
(define-fun .def_222 () Bool (and .def_213 .def_221))
(define-fun .def_223 () Bool (and .def_212 .def_222))
(define-fun .def_160 () Bool (= !pc.next 219))
(define-fun .def_218 () Bool (and .def_160 .def_213))
(define-fun .def_219 () Bool (and .def_203 .def_218))
(define-fun .def_215 () Bool (= !pc.next 239))
(define-fun .def_216 () Bool (and .def_213 .def_215))
(define-fun .def_217 () Bool (and .def_195 .def_216))
(define-fun .def_220 () Bool (or .def_217 .def_219))
(define-fun .def_224 () Bool (or .def_220 .def_223))
(define-fun .def_163 () Bool (= !pc.next 0))
(define-fun .def_158 () Bool (= .def_71 210))
(define-fun .def_164 () Bool (and .def_158 .def_163))
(define-fun .def_143 () Bool (and .def_88 .def_117))
(define-fun .def_144 () Bool (and .def_89 .def_143))
(define-fun .def_145 () Bool (and .def_120 .def_144))
(define-fun .def_146 () Bool (and .def_93 .def_145))
(define-fun .def_147 () Bool (and .def_123 .def_146))
(define-fun .def_148 () Bool (and .def_97 .def_147))
(define-fun .def_149 () Bool (and .def_126 .def_148))
(define-fun .def_150 () Bool (and .def_128 .def_149))
(define-fun .def_151 () Bool (and .def_130 .def_150))
(define-fun .def_153 () Bool (and .def_151 .def_152))
(define-fun .def_154 () Bool (and .def_137 .def_153))
(define-fun .def_155 () Bool (and .def_109 .def_154))
(define-fun .def_156 () Bool (and .def_140 .def_155))
(define-fun .def_165 () Bool (and .def_156 .def_164))
(define-fun .def_161 () Bool (and .def_158 .def_160))
(define-fun .def_162 () Bool (and .def_142 .def_161))
(define-fun .def_166 () Bool (or .def_162 .def_165))
(define-fun .def_115 () Bool (and .def_74 .def_114))
(define-fun .def_111 () Bool (= |!{$(in_main#0)<values.1>}.next| |%{$(in_main#0)<values.1>}#1|))
(define-fun .def_107 () Bool (= |!{%memaddr}.next| 2))
(define-fun .def_105 () Bool (= |!{$(in_main#0)<y>}.next| |%{$(in_main#0)<y>}#1|))
(define-fun .def_101 () Bool (= |!{$(in_main#0)<v>}.next| |%{$(in_main#0)<v>}#1|))
(define-fun .def_99 () Bool (= |!{$(in_main#0)<&set>}.next| 1))
(define-fun .def_95 () Bool (= |!{$(in_main#0)<n>}.next| 0))
(define-fun .def_91 () Bool (= |!{$(in_main#0)<SIZE>}.next| |!{$(in_main#0)<$(in___VERIFIER_nondet_int#1)<h#<__VERIFIER_nondet_int.return>>>}|))
(define-fun .def_92 () Bool (and .def_90 .def_91))
(define-fun .def_94 () Bool (and .def_92 .def_93))
(define-fun .def_96 () Bool (and .def_94 .def_95))
(define-fun .def_98 () Bool (and .def_96 .def_97))
(define-fun .def_100 () Bool (and .def_98 .def_99))
(define-fun .def_102 () Bool (and .def_100 .def_101))
(define-fun .def_104 () Bool (and .def_102 .def_103))
(define-fun .def_106 () Bool (and .def_104 .def_105))
(define-fun .def_108 () Bool (and .def_106 .def_107))
(define-fun .def_110 () Bool (and .def_108 .def_109))
(define-fun .def_112 () Bool (and .def_110 .def_111))
(define-fun .def_116 () Bool (and .def_112 .def_115))
(define-fun .def_167 () Bool (or .def_116 .def_166))
(define-fun .def_225 () Bool (or .def_167 .def_224))
(define-fun .def_264 () Bool (or .def_225 .def_263))
(define-fun .def_348 () Bool (or .def_264 .def_347))
(define-fun .def_374 () Bool (or .def_348 .def_373))
(define-fun .def_385 () Bool (or .def_374 .def_384))
(define-fun .def_398 () Bool (or .def_385 .def_397))
(define-fun .def_415 () Bool (! (or .def_398 .def_414) :trans true))
(define-fun .def_399 () Bool (= .def_71 98))
(define-fun .def_226 () Bool (= .def_71 239))
(define-fun .def_416 () Bool (or .def_226 .def_399))
(define-fun .def_417 () Bool (! (not .def_416) :invar-property 0 :invar-property-name ||))
(assert true)
